c ren 1 -> 1
c ren 2 -> 2
c ren 3 -> 3
c ren 4 -> 4
c ren 5 -> 5
c ren 6 -> 6
c ren 7 -> 7
c ren 8 -> 8
c ren 9 -> 9
c ren 10 -> 10
c ren 11 -> 11
c ren 12 -> 12
c ren 13 -> 13
c ren 14 -> 14
c ren 15 -> 15
c ren 16 -> 16
c ren 17 -> 17
c ren 18 -> 18
c ren 19 -> 19
c ren 20 -> 20
c ren 21 -> 21
c ren 22 -> 22
c ren 23 -> 23
c ren 24 -> 24
c ren 25 -> 25
c ren 26 -> 26
c ren 27 -> 27
c ren 28 -> 28
c ren 29 -> 29
c ren 30 -> 30
c ren 31 -> 31
c ren 32 -> 32
c ren 33 -> 33
c ren 34 -> 34
c ren 35 -> 35
c ren 36 -> 36
c ren 37 -> 37
c ren 38 -> 38
c ren 39 -> 39
c ren 40 -> 40
c ren 41 -> 41
c ren 42 -> 42
c ren 43 -> 43
c ren 44 -> 44
c ren 45 -> 45
c ren 46 -> 46
c ren 47 -> 47
c ren 48 -> 48
c ren 49 -> 49
c ren 50 -> 50
c ren 51 -> 51
c ren 52 -> 52
c ren 53 -> 53
c ren 54 -> 54
c ren 55 -> 55
c ren 56 -> 56
c ren 57 -> 57
c ren 58 -> 58
c ren 59 -> 59
c ren 60 -> 60
c ren 61 -> 61
c ren 62 -> 62
c ren 63 -> 63
c ren 64 -> 64
c ren 69 -> 65
c ren 72 -> 66
c ren 81 -> 67
c ren 87 -> 68
c ren 90 -> 69
c ren 92 -> 70
c ren 100 -> 71
c ren 107 -> 72
c ren 114 -> 73
c ren 121 -> 74
c ren 128 -> 75
c ren 135 -> 76
c ren 148 -> 77
c ren 155 -> 78
c ren 158 -> 79
c ren 168 -> 80
c ren 177 -> 81
c ren 186 -> 82
c ren 195 -> 83
c ren 204 -> 84
c ren 213 -> 85
c ren 222 -> 86
c ren 242 -> 87
c ren 253 -> 88
c ren 262 -> 89
c ren 270 -> 90
c ren 278 -> 91
c ren 286 -> 92
c ren 294 -> 93
c ren 302 -> 94
c ren 310 -> 95
c ren 321 -> 96
c ren 338 -> 97
c ren 340 -> 98
c ren 341 -> 99
c ren 342 -> 100
c ren 343 -> 101
c ren 344 -> 102
c ren 345 -> 103
c ren 346 -> 104
c ren 347 -> 105
c ren 348 -> 106
c ren 349 -> 107
c ren 350 -> 108
c ren 351 -> 109
c ren 366 -> 110
c ren 385 -> 111
c ren 404 -> 112
c ren 413 -> 113
c ren 431 -> 114
c ren 450 -> 115
c ren 490 -> 116
c ren 501 -> 117
c ren 510 -> 118
c ren 518 -> 119
c ren 526 -> 120
c ren 534 -> 121
c ren 542 -> 122
c ren 550 -> 123
c ren 558 -> 124
c ren 581 -> 125
c ren 609 -> 126
c ren 610 -> 127
c ren 611 -> 128
c ren 612 -> 129
c ren 613 -> 130
c ren 614 -> 131
c ren 615 -> 132
c ren 616 -> 133
c ren 617 -> 134
c ren 618 -> 135
c ren 619 -> 136
c ren 620 -> 137
c ren 621 -> 138
c ren 622 -> 139
c ren 623 -> 140
c ren 624 -> 141
c ren 625 -> 142
c ren 626 -> 143
c ren 627 -> 144
c ren 628 -> 145
c ren 629 -> 146
c ren 630 -> 147
c ren 631 -> 148
c ren 632 -> 149
c ren 633 -> 150
c ren 634 -> 151
c ren 635 -> 152
p cnf 152 662
a 1 2 3 4 5 6 7 8 9 10 11 12 13 14 15 16 17 18 19 20 21 22 23 24 25 26 27 28 29 30 31 32 33 34 35 36 37 38 39 40 41 42 43 44 45 46 47 48 49 50 51 52 53 54 55 56 57 58 59 60 61 62 63 64 0
d 98 37 0
d 99 53 54 55 56 57 58 59 60 61 62 63 64 0
d 100 53 54 55 56 57 58 59 60 61 62 63 64 0
d 101 53 54 55 56 57 58 59 60 61 62 63 64 0
d 102 39 40 0
d 103 38 0
d 104 41 42 43 44 45 46 47 48 49 50 51 52 0
d 105 41 42 43 44 45 46 47 48 49 50 51 52 0
d 106 41 42 43 44 45 46 47 48 49 50 51 52 0
d 107 41 42 43 44 45 46 47 48 49 50 51 52 0
d 108 41 42 43 44 45 46 47 48 49 50 51 52 0
d 109 41 42 43 44 45 46 47 48 49 50 51 52 0
e 65 66 67 68 69 70 71 72 73 74 75 76 77 78 79 80 81 82 83 84 85 86 87 88 89 90 91 92 93 94 95 96 97 110 111 112 113 114 115 116 117 118 119 120 121 122 123 124 125 126 127 128 129 130 131 132 133 134 135 136 137 138 139 140 141 142 143 144 145 146 147 148 149 150 151 152 0
-2 5 -70 -79 80 0
1 -2 -70 0
2 -12 18 -24 65 66 67 68 69 70 0
-4 -65 0
6 -65 0
-8 -66 0
10 -66 0
-12 -45 -135 0
12 -14 -70 0
-18 21 -70 -79 84 0
16 -18 -70 0
-1 14 18 26 65 66 67 68 69 70 0
-20 -67 0
22 -67 0
-24 -26 27 59 106 -149 0
24 -26 -70 0
-28 -68 0
30 -68 0
-34 36 96 -101 -107 117 -126 0
-32 -69 0
34 -69 0
1 -2 3 71 0
-65 -70 0
-66 -70 0
16 -18 19 75 0
-67 -70 0
24 -26 27 59 -106 -149 0
-68 -70 0
-69 -70 0
5 -71 80 0
-2 3 -70 71 0
2 -12 -16 -24 65 66 67 68 69 70 0
26 -62 106 -152 0
2 -12 -16 26 65 66 67 68 69 70 0
-1 -12 -16 -24 65 66 67 68 69 70 0
26 62 -106 -152 0
-3 -71 0
1 -2 5 -79 80 0
2 14 -16 -24 65 66 67 68 69 70 0
2 -12 18 26 65 66 67 68 69 70 0
2 -71 0
65 70 -81 0
-6 9 -70 -79 81 0
36 -69 78 100 -106 -116 0
2 14 18 -24 65 66 67 68 69 70 0
9 -65 -79 81 0
-6 7 -70 72 0
2 14 18 26 65 66 67 68 69 70 0
2 14 -16 26 65 66 67 68 69 70 0
7 -65 72 0
-36 68 -99 -106 110 111 112 113 114 115 116 0
6 -54 -144 0
-6 7 9 65 -100 106 111 0
66 70 -82 0
-10 13 -70 -79 82 0
-77 -78 -99 100 110 111 112 113 114 115 116 0
68 -78 -99 100 -106 110 111 112 113 114 115 116 0
13 -66 -79 82 0
69 -77 -99 100 -106 110 111 112 113 114 115 116 0
-10 11 -70 73 0
30 69 -99 -106 110 111 112 113 114 115 116 0
11 -66 73 0
-33 69 -99 -106 110 111 112 113 114 115 116 0
10 -55 -145 0
-10 11 13 66 -100 106 112 0
17 -74 83 0
-14 15 -70 74 0
-58 -67 106 -148 0
-1 -12 18 -24 65 66 67 68 69 70 0
-23 25 -67 100 -106 115 0
-15 -74 0
12 -14 45 -135 0
14 -74 0
-18 19 -70 75 0
21 -75 84 0
-1 14 -16 -24 65 66 67 68 69 70 0
16 -18 21 -79 84 0
18 -57 -147 0
-18 19 21 -100 103 106 114 0
67 70 -85 0
-22 25 -70 -79 85 0
25 -67 -79 85 0
-22 23 -70 76 0
23 -67 76 0
22 -58 -148 0
-22 23 25 67 -100 106 115 0
-24 68 70 71 72 73 74 75 76 78 79 0
-26 29 -70 -79 86 0
14 -45 -135 0
24 -26 27 29 86 0
-24 70 71 72 73 74 75 76 77 78 79 0
26 -48 -138 0
-24 68 69 70 71 72 73 74 75 76 79 0
-24 -48 -138 0
-27 79 -86 0
-36 68 70 80 81 82 83 84 85 86 87 0
-70 -77 -79 0
34 68 70 80 81 82 83 84 85 86 87 0
-68 -77 -79 0
-30 33 -70 -79 -87 0
-27 -59 -149 0
68 70 78 79 80 81 82 83 84 85 86 87 0
-31 -77 0
30 -77 0
33 -70 -77 -87 0
68 69 70 80 81 82 83 84 85 86 87 0
-33 69 70 80 81 82 83 84 85 86 87 0
-70 -78 -79 0
30 69 70 80 81 82 83 84 85 86 87 0
-69 -78 -79 0
-34 36 -70 -79 -87 0
26 68 69 70 71 72 73 74 75 76 79 0
-35 -78 0
34 -78 0
26 68 70 71 72 73 74 75 76 78 79 0
69 70 77 79 80 81 82 83 84 85 86 87 0
-71 -79 0
-72 -79 0
-73 -79 0
-74 -79 0
-75 -79 0
-76 -79 0
26 -59 -149 0
33 -68 -77 -87 0
36 -69 -78 -87 0
36 -69 -79 -87 0
-1 -12 -16 26 65 66 67 68 69 70 0
-1 70 -80 0
-5 -80 0
2 -80 0
71 79 -80 0
-1 70 -71 0
65 70 -72 0
9 -65 -72 81 0
6 -81 0
-7 -100 -111 0
-9 -81 0
6 -111 0
72 79 -81 0
9 -70 -72 81 0
66 70 -73 0
13 -66 -73 82 0
10 -82 0
-11 -100 -112 0
-13 -82 0
10 -112 0
73 79 -82 0
13 -70 -73 82 0
-1 -12 18 26 65 66 67 68 69 70 0
-17 -83 0
14 -83 0
74 79 -83 0
-12 70 -74 0
-1 14 -16 26 65 66 67 68 69 70 0
-16 70 -84 0
18 -84 0
-19 -100 -114 0
-21 -84 0
18 -114 0
75 79 -84 0
-16 70 -75 0
67 70 -76 0
25 -67 -76 85 0
22 -85 0
-23 -100 -115 0
-25 -85 0
22 -115 0
76 79 -85 0
25 -70 -76 85 0
-24 70 -86 0
-29 -86 0
26 -86 0
33 -68 -79 -87 0
-27 68 69 70 71 72 73 74 75 76 79 0
34 77 79 80 81 82 83 84 85 86 87 0
69 77 -99 -100 -106 110 111 112 113 114 115 116 0
30 -36 -99 110 111 112 113 114 115 116 0
-33 -36 -99 110 111 112 113 114 115 116 0
24 -59 106 -149 0
30 34 80 81 82 83 84 85 86 87 0
77 78 79 80 81 82 83 84 85 86 87 0
-33 78 79 80 81 82 83 84 85 86 87 0
-33 34 -99 110 111 112 113 114 115 116 0
36 -70 -78 -87 0
61 69 -78 106 -151 0
-33 -36 80 81 82 83 84 85 86 87 0
-27 69 70 71 72 73 74 75 76 77 79 0
-68 -69 -99 106 110 111 112 113 114 115 116 0
-61 -69 106 -151 0
34 68 -99 -106 110 111 112 113 114 115 116 0
34 77 -99 -100 110 111 112 113 114 115 116 0
-30 33 68 77 100 106 -116 0
-36 77 79 80 81 82 83 84 85 86 87 0
-80 -87 0
-81 -87 0
-82 -87 0
-83 -87 0
-84 -87 0
-85 -87 0
-86 -87 0
30 78 79 80 81 82 83 84 85 86 87 0
1 -2 3 -87 88 0
-1 70 -88 0
-2 5 -70 -79 88 0
1 -2 -79 -87 88 0
-3 79 -88 0
-2 -70 -79 -87 88 0
-2 3 -70 -87 88 0
-5 87 -88 0
2 -88 0
1 -2 3 5 88 0
1 -2 5 -79 88 0
-2 3 5 -70 88 0
4 -6 7 -87 89 0
-4 70 -89 0
-6 9 -70 -79 89 0
4 -6 -79 -87 89 0
-7 79 -89 0
-6 -70 -79 -87 89 0
-6 7 -70 -87 89 0
-9 87 -89 0
4 -6 7 9 89 0
4 -6 9 -79 89 0
-6 7 9 -70 89 0
6 -89 0
8 -10 11 -87 90 0
-8 70 -90 0
-10 13 -70 -79 90 0
8 -10 -79 -87 90 0
-11 79 -90 0
-10 -70 -79 -87 90 0
-10 11 -70 -87 90 0
-13 87 -90 0
8 -10 11 13 90 0
8 -10 13 -79 90 0
-10 11 13 -70 90 0
10 -90 0
12 -14 15 -87 91 0
-12 70 -91 0
-14 17 -70 -79 91 0
12 -14 -79 -87 91 0
-15 79 -91 0
-14 -70 -79 -87 91 0
-14 15 -70 -87 91 0
-17 87 -91 0
12 -14 15 17 91 0
12 -14 17 -79 91 0
-14 15 17 -70 91 0
14 -91 0
16 -18 19 -87 92 0
-16 70 -92 0
-18 21 -70 -79 92 0
16 -18 -79 -87 92 0
-19 79 -92 0
-18 -70 -79 -87 92 0
-18 19 -70 -87 92 0
-21 87 -92 0
16 -18 19 21 92 0
16 -18 21 -79 92 0
-18 19 21 -70 92 0
18 -92 0
20 -22 23 -87 93 0
-20 70 -93 0
-22 25 -70 -79 93 0
20 -22 -79 -87 93 0
-23 79 -93 0
-22 -70 -79 -87 93 0
-22 23 -70 -87 93 0
-25 87 -93 0
20 -22 23 25 93 0
20 -22 25 -79 93 0
-22 23 25 -70 93 0
22 -93 0
24 -26 27 -87 94 0
-24 70 -94 0
-26 29 -70 -79 94 0
24 -26 -79 -87 94 0
-27 79 -94 0
-26 -70 -79 -87 94 0
-26 27 -70 -87 94 0
-29 87 -94 0
24 -26 27 29 94 0
24 -26 29 -79 94 0
-26 27 29 -70 94 0
26 -94 0
28 -30 31 -87 95 0
-28 70 -95 0
-30 33 -70 -79 95 0
28 -30 -79 -87 95 0
-31 79 -95 0
-30 -70 -79 -87 95 0
-30 31 -70 -87 95 0
-33 87 -95 0
28 -30 31 33 95 0
28 -30 33 -79 95 0
-30 31 33 -70 95 0
30 -95 0
32 -34 35 -87 88 96 0
-32 70 89 90 91 92 93 94 95 -96 0
-34 36 -70 -79 88 96 0
32 -34 -79 -87 88 96 0
-35 79 89 90 91 92 93 94 95 -96 0
-34 -70 -79 -87 88 96 0
-34 35 -70 -87 88 96 0
-36 87 89 90 91 92 93 94 95 -96 0
-34 35 36 -70 88 96 0
34 89 90 91 92 93 94 95 -96 0
32 -34 35 36 88 96 0
32 -34 36 -79 88 96 0
88 -89 96 0
88 -90 96 0
88 -91 96 0
88 -92 96 0
88 -93 96 0
88 -94 96 0
-88 -96 0
88 -95 96 0
89 -90 97 0
90 -91 -97 0
89 90 91 92 -118 -126 0
89 90 91 92 -119 -126 0
89 90 91 92 -120 -126 0
-90 118 119 -126 0
91 92 -93 -125 -126 0
90 92 -93 -97 0
89 90 -92 125 -126 0
89 90 91 92 -121 -126 0
-90 -125 -126 0
89 91 -92 -94 97 0
89 90 93 94 125 -126 0
-89 -125 -126 0
89 91 93 -94 97 0
89 91 93 95 97 0
90 94 -95 -97 0
89 91 -92 95 97 0
91 92 -94 -125 -126 0
-89 -97 0
-53 -106 -108 -143 0
53 -102 106 -108 -143 0
106 108 -110 0
53 -102 -106 108 -143 0
5 98 -100 -102 106 -108 110 0
-53 106 108 -143 0
100 -102 -110 0
5 98 100 102 -106 108 110 0
-53 102 -143 0
-98 -110 0
-5 -110 0
4 -6 65 0
7 100 -111 0
65 -106 -111 0
7 9 -65 -100 -106 111 0
-7 -72 0
-65 106 -111 0
-54 65 -106 -144 0
-6 7 54 65 106 -144 0
-9 -111 0
8 -10 66 0
11 100 -112 0
66 -106 -112 0
-54 -65 106 -144 0
11 13 -66 -100 -106 112 0
-11 -73 0
-7 9 -65 100 -106 111 0
-66 106 -112 0
-55 66 -106 -145 0
-10 11 55 66 106 -145 0
-13 -112 0
-15 -56 -146 0
15 -100 104 -105 109 113 0
100 104 -109 113 0
-56 105 -146 0
15 56 -105 109 -146 0
-15 100 104 113 0
-100 -109 -113 0
-56 -109 -146 0
-15 -100 -113 0
-104 -113 0
18 -46 -136 0
-18 -19 21 100 -103 -106 114 0
-11 13 -66 100 -106 112 0
19 100 -114 0
-18 19 57 -103 -106 -147 0
-57 -103 106 -147 0
-103 106 -114 0
-18 19 21 -100 -103 -106 114 0
-19 -75 0
-55 -66 106 -145 0
103 -106 -114 0
-18 19 57 103 106 -147 0
-21 -114 0
20 -22 67 0
67 -106 -115 0
23 100 -115 0
-57 103 -106 -147 0
23 25 -67 -100 -106 115 0
-23 -76 0
-18 46 -103 -136 0
-67 106 -115 0
-34 96 -101 -107 -116 117 -126 0
-58 67 -106 -148 0
-22 23 58 67 106 -148 0
-25 -115 0
32 -34 36 96 -101 117 -126 0
28 -30 68 0
34 -68 -99 106 110 111 112 113 114 115 116 0
-36 -77 -99 100 110 111 112 113 114 115 116 0
-36 -68 -99 106 110 111 112 113 114 115 116 0
68 69 -99 -106 110 111 112 113 114 115 116 0
33 -68 -77 -100 -106 -116 0
-30 31 77 0
-60 77 -150 0
-60 68 -106 -150 0
-36 77 -99 -100 110 111 112 113 114 115 116 0
34 -77 -99 100 110 111 112 113 114 115 116 0
68 78 -99 -100 -106 110 111 112 113 114 115 116 0
36 69 -78 -100 106 -116 0
-33 78 -99 -100 110 111 112 113 114 115 116 0
-27 68 70 71 72 73 74 75 76 78 79 0
-33 -78 -99 100 110 111 112 113 114 115 116 0
61 -69 -78 -106 -151 0
-61 69 -106 -151 0
32 -34 69 0
-60 -68 106 -150 0
-69 77 -99 -100 106 110 111 112 113 114 115 116 0
60 -68 -77 -106 -150 0
33 -68 77 100 -106 -116 0
36 -69 -78 -100 -106 -116 0
-34 35 78 0
-61 78 -151 0
-33 34 80 81 82 83 84 85 86 87 0
-69 -77 -99 100 106 110 111 112 113 114 115 116 0
-33 -69 -99 106 110 111 112 113 114 115 116 0
-68 -78 -99 100 106 110 111 112 113 114 115 116 0
30 78 -99 -100 110 111 112 113 114 115 116 0
77 78 -99 -100 110 111 112 113 114 115 116 0
-110 -116 0
-111 -116 0
-112 -116 0
-113 -116 0
-114 -116 0
-115 -116 0
99 -116 0
30 -69 -99 106 110 111 112 113 114 115 116 0
1 -2 3 -116 117 0
-1 107 -117 0
-2 5 -101 -107 117 0
1 -2 -101 -116 117 0
-3 101 -117 0
-2 -101 -107 -116 117 0
-2 3 -107 -116 117 0
-5 116 -117 0
2 -117 0
1 -2 3 5 117 0
1 -2 5 -101 117 0
-2 3 5 -107 117 0
4 -6 7 -116 118 0
-4 107 -118 0
-6 9 -101 -107 118 0
4 -6 -101 -116 118 0
-7 101 -118 0
-6 -101 -107 -116 118 0
-6 7 -107 -116 118 0
-9 116 -118 0
4 -6 7 9 118 0
4 -6 9 -101 118 0
-6 7 9 -107 118 0
6 -118 0
8 -10 11 -116 119 0
-8 107 -119 0
-10 13 -101 -107 119 0
8 -10 -101 -116 119 0
-11 101 -119 0
-10 -101 -107 -116 119 0
-10 11 -107 -116 119 0
-13 116 -119 0
8 -10 11 13 119 0
8 -10 13 -101 119 0
-10 11 13 -107 119 0
10 -119 0
12 -14 15 -116 120 0
-12 107 -120 0
-14 17 -101 -107 120 0
12 -14 -101 -116 120 0
-15 101 -120 0
-14 -101 -107 -116 120 0
-14 15 -107 -116 120 0
-17 116 -120 0
12 -14 15 17 120 0
12 -14 17 -101 120 0
-14 15 17 -107 120 0
14 -120 0
16 -18 19 -116 121 0
-16 107 -121 0
-18 21 -101 -107 121 0
16 -18 -101 -116 121 0
-19 101 -121 0
-18 -101 -107 -116 121 0
-18 19 -107 -116 121 0
-21 116 -121 0
16 -18 19 21 121 0
16 -18 21 -101 121 0
-18 19 21 -107 121 0
18 -121 0
20 -22 23 -116 122 0
-20 107 -122 0
-22 25 -101 -107 122 0
20 -22 -101 -116 122 0
-23 101 -122 0
-22 -101 -107 -116 122 0
-22 23 -107 -116 122 0
-25 116 -122 0
20 -22 23 25 122 0
20 -22 25 -101 122 0
-22 23 25 -107 122 0
22 -122 0
24 -26 27 -116 123 0
-24 107 -123 0
-26 29 101 -107 123 0
24 -26 101 -116 123 0
-27 -101 -123 0
-26 101 -107 -116 123 0
-26 27 -107 -116 123 0
-29 116 -123 0
24 -26 27 29 123 0
24 -26 29 101 123 0
-26 27 29 -107 123 0
26 -123 0
28 -30 31 -116 124 0
-28 107 -124 0
-30 33 -101 -107 124 0
28 -30 -101 -116 124 0
-31 101 -124 0
-30 -101 -107 -116 124 0
-30 31 -107 -116 124 0
-33 116 -124 0
28 -30 31 33 124 0
28 -30 33 -101 124 0
-30 31 33 -107 124 0
30 -124 0
-32 -96 107 118 119 120 121 122 123 124 -126 0
-34 35 96 -107 -116 117 -126 0
-35 -96 101 118 119 120 121 122 123 124 -126 0
-34 35 36 96 -107 117 -126 0
-36 -96 116 118 119 120 121 122 123 124 -126 0
32 -34 35 36 96 117 -126 0
32 -34 96 -101 -116 117 -126 0
34 -96 118 119 120 121 122 123 124 -126 0
32 -34 35 96 -116 117 -126 0
96 117 -118 -126 0
96 117 -119 -126 0
96 117 -120 -126 0
96 117 -123 -126 0
96 117 -122 -126 0
97 118 -119 -126 0
118 119 122 123 125 0
120 121 -122 -125 0
-97 119 121 -122 -126 0
97 118 120 -121 -123 -126 0
120 121 -123 -125 0
118 119 -120 125 0
-118 -125 0
-119 -125 0
97 118 120 -121 124 -126 0
118 119 -121 125 0
89 90 -91 125 -126 0
-97 119 123 -124 -126 0
-97 119 -120 -126 0
-1 14 18 -24 65 66 67 68 69 70 0
-24 -59 -106 -149 0
-92 118 119 120 121 -126 0
24 -26 -62 -106 -152 0
-24 69 70 71 72 73 74 75 76 77 79 0
-26 27 -70 -79 0
-27 71 72 73 74 75 76 77 78 79 0
26 71 72 73 74 75 76 77 78 79 0
24 -26 62 106 -152 0
70 -107 -126 0
-70 107 -126 0
79 -101 -126 0
-79 101 -126 0
87 -116 -126 0
-87 116 -126 0
-96 -117 -126 0
96 117 -121 -126 0
96 117 -124 -126 0
-89 118 119 120 121 -126 0
97 118 120 122 -123 -126 0
97 118 120 122 124 -126 0
-97 -118 -126 0
-2 -37 -127 0
2 37 -127 0
-16 -38 -128 0
16 38 -128 0
-3 -39 -129 0
3 39 -129 0
-40 -98 -130 0
40 98 -130 0
1 -41 -131 0
-1 41 -131 0
-2 -42 -132 0
2 42 -132 0
-43 65 -133 0
43 -65 -133 0
-44 66 -134 0
44 -66 -134 0
-14 17 -70 -79 83 0
-12 70 -83 0
12 -14 15 74 0
12 -14 17 -79 83 0
-46 103 -136 0
-47 67 -137 0
47 -67 -137 0
-24 -62 106 -152 0
24 -26 48 -138 0
-49 68 -139 0
49 -68 -139 0
-50 69 -140 0
50 -69 -140 0
-17 -51 -141 0
17 51 -141 0
-14 -52 -142 0
14 52 -142 0
5 98 -100 -102 -106 108 110 0
-100 102 -110 0
-106 -108 -110 0
5 98 100 102 106 -108 110 0
-7 -54 -144 0
6 -72 0
-6 -7 9 65 100 106 111 0
7 54 -65 -106 -144 0
-11 -55 -145 0
10 -73 0
-10 -11 13 66 100 106 112 0
11 55 -66 -106 -145 0
-100 105 -113 0
100 104 105 113 0
15 100 -105 109 -113 0
-19 -57 -147 0
18 -75 0
-18 -19 21 100 103 106 114 0
-23 -58 -148 0
22 -76 0
-22 -23 25 67 100 106 115 0
23 58 -67 -106 -148 0
-24 62 -106 -152 0
24 -26 29 -79 86 0
26 69 70 71 72 73 74 75 76 77 79 0
-68 78 -99 -100 106 110 111 112 113 114 115 116 0
60 68 -77 106 -150 0
33 68 -77 -100 106 -116 0
30 34 -99 110 111 112 113 114 115 116 0
30 -78 -99 100 110 111 112 113 114 115 116 0
30 -36 80 81 82 83 84 85 86 87 0
-34 36 69 78 100 106 -116 0
24 -26 27 -79 0
-26 27 29 -70 86 0
-26 -29 -63 64 126 127 128 129 130 131 132 133 134 135 136 137 138 139 140 141 142 143 144 145 146 147 148 149 150 151 152 0
26 29 63 -64 126 127 128 129 130 131 132 133 134 135 136 137 138 139 140 141 142 143 144 145 146 147 148 149 150 151 152 0
26 -29 -63 -64 126 127 128 129 130 131 132 133 134 135 136 137 138 139 140 141 142 143 144 145 146 147 148 149 150 151 152 0
-91 118 119 120 121 -126 0
-26 29 63 64 126 127 128 129 130 131 132 133 134 135 136 137 138 139 140 141 142 143 144 145 146 147 148 149 150 151 152 0
